(set-info :category "industrial")
(set-info :status sat)
(declare-fun x00 () (_ BitVec 8))
(declare-fun x03 () (_ BitVec 8))
(declare-fun x04 () (_ BitVec 8))
(declare-fun x05 () (_ BitVec 8))
(declare-fun x07 () (_ BitVec 8))
(declare-fun x08 () (_ BitVec 8))
(declare-fun x10 () (_ BitVec 8))
(declare-fun x11 () (_ BitVec 8))
(declare-fun x13 () (_ BitVec 8))
(declare-fun x15 () (_ BitVec 8))
(declare-fun x16 () (_ BitVec 8))
(declare-fun x17 () (_ BitVec 8))
(declare-fun x20 () (_ BitVec 8))
(declare-fun x22 () (_ BitVec 8))
(declare-fun x24 () (_ BitVec 8))
(declare-fun x26 () (_ BitVec 8))
(declare-fun x27 () (_ BitVec 8))
(declare-fun x28 () (_ BitVec 8))
(declare-fun x30 () (_ BitVec 8))
(declare-fun x32 () (_ BitVec 8))
(declare-fun x35 () (_ BitVec 8))
(declare-fun x38 () (_ BitVec 8))
(declare-fun x41 () (_ BitVec 8))
(declare-fun x42 () (_ BitVec 8))
(declare-fun x44 () (_ BitVec 8))
(declare-fun x46 () (_ BitVec 8))
(declare-fun x47 () (_ BitVec 8))
(declare-fun x51 () (_ BitVec 8))
(declare-fun x53 () (_ BitVec 8))
(declare-fun x54 () (_ BitVec 8))
(declare-fun x55 () (_ BitVec 8))
(declare-fun x56 () (_ BitVec 8))
(declare-fun x57 () (_ BitVec 8))
(declare-fun x61 () (_ BitVec 8))
(declare-fun x63 () (_ BitVec 8))
(declare-fun x64 () (_ BitVec 8))
(declare-fun x66 () (_ BitVec 8))
(declare-fun x67 () (_ BitVec 8))
(declare-fun x70 () (_ BitVec 8))
(declare-fun x72 () (_ BitVec 8))
(declare-fun x73 () (_ BitVec 8))
(declare-fun x75 () (_ BitVec 8))
(declare-fun x77 () (_ BitVec 8))
(declare-fun x78 () (_ BitVec 8))
(declare-fun x80 () (_ BitVec 8))
(declare-fun x82 () (_ BitVec 8))
(declare-fun x85 () (_ BitVec 8))
(declare-fun x87 () (_ BitVec 8))
(declare-fun x88 () (_ BitVec 8))
(assert (bvult x00 (_ bv9 8)))
(assert (bvult x03 (_ bv9 8)))
(assert (bvult x04 (_ bv9 8)))
(assert (bvult x05 (_ bv9 8)))
(assert (bvult x07 (_ bv9 8)))
(assert (bvult x08 (_ bv9 8)))
(assert (bvult x10 (_ bv9 8)))
(assert (bvult x11 (_ bv9 8)))
(assert (bvult x13 (_ bv9 8)))
(assert (bvult x15 (_ bv9 8)))
(assert (bvult x16 (_ bv9 8)))
(assert (bvult x17 (_ bv9 8)))
(assert (bvult x20 (_ bv9 8)))
(assert (bvult x22 (_ bv9 8)))
(assert (bvult x24 (_ bv9 8)))
(assert (bvult x26 (_ bv9 8)))
(assert (bvult x27 (_ bv9 8)))
(assert (bvult x28 (_ bv9 8)))
(assert (bvult x30 (_ bv9 8)))
(assert (bvult x32 (_ bv9 8)))
(assert (bvult x35 (_ bv9 8)))
(assert (bvult x38 (_ bv9 8)))
(assert (bvult x41 (_ bv9 8)))
(assert (bvult x42 (_ bv9 8)))
(assert (bvult x44 (_ bv9 8)))
(assert (bvult x46 (_ bv9 8)))
(assert (bvult x47 (_ bv9 8)))
(assert (bvult x51 (_ bv9 8)))
(assert (bvult x53 (_ bv9 8)))
(assert (bvult x54 (_ bv9 8)))
(assert (bvult x55 (_ bv9 8)))
(assert (bvult x56 (_ bv9 8)))
(assert (bvult x57 (_ bv9 8)))
(assert (bvult x61 (_ bv9 8)))
(assert (bvult x63 (_ bv9 8)))
(assert (bvult x64 (_ bv9 8)))
(assert (bvult x66 (_ bv9 8)))
(assert (bvult x67 (_ bv9 8)))
(assert (bvult x70 (_ bv9 8)))
(assert (bvult x72 (_ bv9 8)))
(assert (bvult x73 (_ bv9 8)))
(assert (bvult x75 (_ bv9 8)))
(assert (bvult x77 (_ bv9 8)))
(assert (bvult x78 (_ bv9 8)))
(assert (bvult x80 (_ bv9 8)))
(assert (bvult x82 (_ bv9 8)))
(assert (bvult x85 (_ bv9 8)))
(assert (bvult x87 (_ bv9 8)))
(assert (bvult x88 (_ bv9 8)))
(assert (not (= x00 (_ bv8 8))))
(assert (not (= x00 (_ bv6 8))))
(assert (not (= x00 x03)))
(assert (not (= x00 x04)))
(assert (not (= x00 x05)))
(assert (not (= x00 (_ bv4 8))))
(assert (not (= x00 x07)))
(assert (not (= x00 x08)))
(assert (not (= (_ bv8 8) (_ bv6 8))))
(assert (not (= (_ bv8 8) x03)))
(assert (not (= (_ bv8 8) x04)))
(assert (not (= (_ bv8 8) x05)))
(assert (not (= (_ bv8 8) (_ bv4 8))))
(assert (not (= (_ bv8 8) x07)))
(assert (not (= (_ bv8 8) x08)))
(assert (not (= (_ bv6 8) x03)))
(assert (not (= (_ bv6 8) x04)))
(assert (not (= (_ bv6 8) x05)))
(assert (not (= (_ bv6 8) (_ bv4 8))))
(assert (not (= (_ bv6 8) x07)))
(assert (not (= (_ bv6 8) x08)))
(assert (not (= x03 x04)))
(assert (not (= x03 x05)))
(assert (not (= x03 (_ bv4 8))))
(assert (not (= x03 x07)))
(assert (not (= x03 x08)))
(assert (not (= x04 x05)))
(assert (not (= x04 (_ bv4 8))))
(assert (not (= x04 x07)))
(assert (not (= x04 x08)))
(assert (not (= x05 (_ bv4 8))))
(assert (not (= x05 x07)))
(assert (not (= x05 x08)))
(assert (not (= (_ bv4 8) x07)))
(assert (not (= (_ bv4 8) x08)))
(assert (not (= x07 x08)))
(assert (not (= x10 x11)))
(assert (not (= x10 (_ bv7 8))))
(assert (not (= x10 x13)))
(assert (not (= x10 (_ bv1 8))))
(assert (not (= x10 x15)))
(assert (not (= x10 x16)))
(assert (not (= x10 x17)))
(assert (not (= x10 (_ bv5 8))))
(assert (not (= x11 (_ bv7 8))))
(assert (not (= x11 x13)))
(assert (not (= x11 (_ bv1 8))))
(assert (not (= x11 x15)))
(assert (not (= x11 x16)))
(assert (not (= x11 x17)))
(assert (not (= x11 (_ bv5 8))))
(assert (not (= (_ bv7 8) x13)))
(assert (not (= (_ bv7 8) (_ bv1 8))))
(assert (not (= (_ bv7 8) x15)))
(assert (not (= (_ bv7 8) x16)))
(assert (not (= (_ bv7 8) x17)))
(assert (not (= (_ bv7 8) (_ bv5 8))))
(assert (not (= x13 (_ bv1 8))))
(assert (not (= x13 x15)))
(assert (not (= x13 x16)))
(assert (not (= x13 x17)))
(assert (not (= x13 (_ bv5 8))))
(assert (not (= (_ bv1 8) x15)))
(assert (not (= (_ bv1 8) x16)))
(assert (not (= (_ bv1 8) x17)))
(assert (not (= (_ bv1 8) (_ bv5 8))))
(assert (not (= x15 x16)))
(assert (not (= x15 x17)))
(assert (not (= x15 (_ bv5 8))))
(assert (not (= x16 x17)))
(assert (not (= x16 (_ bv5 8))))
(assert (not (= x17 (_ bv5 8))))
(assert (not (= x20 (_ bv9 8))))
(assert (not (= x20 x22)))
(assert (not (= x20 (_ bv4 8))))
(assert (not (= x20 x24)))
(assert (not (= x20 (_ bv2 8))))
(assert (not (= x20 x26)))
(assert (not (= x20 x27)))
(assert (not (= x20 x28)))
(assert (not (= (_ bv9 8) x22)))
(assert (not (= (_ bv9 8) (_ bv4 8))))
(assert (not (= (_ bv9 8) x24)))
(assert (not (= (_ bv9 8) (_ bv2 8))))
(assert (not (= (_ bv9 8) x26)))
(assert (not (= (_ bv9 8) x27)))
(assert (not (= (_ bv9 8) x28)))
(assert (not (= x22 (_ bv4 8))))
(assert (not (= x22 x24)))
(assert (not (= x22 (_ bv2 8))))
(assert (not (= x22 x26)))
(assert (not (= x22 x27)))
(assert (not (= x22 x28)))
(assert (not (= (_ bv4 8) x24)))
(assert (not (= (_ bv4 8) (_ bv2 8))))
(assert (not (= (_ bv4 8) x26)))
(assert (not (= (_ bv4 8) x27)))
(assert (not (= (_ bv4 8) x28)))
(assert (not (= x24 (_ bv2 8))))
(assert (not (= x24 x26)))
(assert (not (= x24 x27)))
(assert (not (= x24 x28)))
(assert (not (= (_ bv2 8) x26)))
(assert (not (= (_ bv2 8) x27)))
(assert (not (= (_ bv2 8) x28)))
(assert (not (= x26 x27)))
(assert (not (= x26 x28)))
(assert (not (= x27 x28)))
(assert (not (= x30 (_ bv2 8))))
(assert (not (= x30 x32)))
(assert (not (= x30 (_ bv1 8))))
(assert (not (= x30 (_ bv9 8))))
(assert (not (= x30 x35)))
(assert (not (= x30 (_ bv6 8))))
(assert (not (= x30 (_ bv8 8))))
(assert (not (= x30 x38)))
(assert (not (= (_ bv2 8) x32)))
(assert (not (= (_ bv2 8) (_ bv1 8))))
(assert (not (= (_ bv2 8) (_ bv9 8))))
(assert (not (= (_ bv2 8) x35)))
(assert (not (= (_ bv2 8) (_ bv6 8))))
(assert (not (= (_ bv2 8) (_ bv8 8))))
(assert (not (= (_ bv2 8) x38)))
(assert (not (= x32 (_ bv1 8))))
(assert (not (= x32 (_ bv9 8))))
(assert (not (= x32 x35)))
(assert (not (= x32 (_ bv6 8))))
(assert (not (= x32 (_ bv8 8))))
(assert (not (= x32 x38)))
(assert (not (= (_ bv1 8) (_ bv9 8))))
(assert (not (= (_ bv1 8) x35)))
(assert (not (= (_ bv1 8) (_ bv6 8))))
(assert (not (= (_ bv1 8) (_ bv8 8))))
(assert (not (= (_ bv1 8) x38)))
(assert (not (= (_ bv9 8) x35)))
(assert (not (= (_ bv9 8) (_ bv6 8))))
(assert (not (= (_ bv9 8) (_ bv8 8))))
(assert (not (= (_ bv9 8) x38)))
(assert (not (= x35 (_ bv6 8))))
(assert (not (= x35 (_ bv8 8))))
(assert (not (= x35 x38)))
(assert (not (= (_ bv6 8) (_ bv8 8))))
(assert (not (= (_ bv6 8) x38)))
(assert (not (= (_ bv8 8) x38)))
(assert (not (= (_ bv9 8) x41)))
(assert (not (= (_ bv9 8) x42)))
(assert (not (= (_ bv9 8) (_ bv6 8))))
(assert (not (= (_ bv9 8) x44)))
(assert (not (= (_ bv9 8) (_ bv3 8))))
(assert (not (= (_ bv9 8) x46)))
(assert (not (= (_ bv9 8) x47)))
(assert (not (= (_ bv9 8) (_ bv2 8))))
(assert (not (= x41 x42)))
(assert (not (= x41 (_ bv6 8))))
(assert (not (= x41 x44)))
(assert (not (= x41 (_ bv3 8))))
(assert (not (= x41 x46)))
(assert (not (= x41 x47)))
(assert (not (= x41 (_ bv2 8))))
(assert (not (= x42 (_ bv6 8))))
(assert (not (= x42 x44)))
(assert (not (= x42 (_ bv3 8))))
(assert (not (= x42 x46)))
(assert (not (= x42 x47)))
(assert (not (= x42 (_ bv2 8))))
(assert (not (= (_ bv6 8) x44)))
(assert (not (= (_ bv6 8) (_ bv3 8))))
(assert (not (= (_ bv6 8) x46)))
(assert (not (= (_ bv6 8) x47)))
(assert (not (= (_ bv6 8) (_ bv2 8))))
(assert (not (= x44 (_ bv3 8))))
(assert (not (= x44 x46)))
(assert (not (= x44 x47)))
(assert (not (= x44 (_ bv2 8))))
(assert (not (= (_ bv3 8) x46)))
(assert (not (= (_ bv3 8) x47)))
(assert (not (= (_ bv3 8) (_ bv2 8))))
(assert (not (= x46 x47)))
(assert (not (= x46 (_ bv2 8))))
(assert (not (= x47 (_ bv2 8))))
(assert (not (= (_ bv3 8) x51)))
(assert (not (= (_ bv3 8) (_ bv5 8))))
(assert (not (= (_ bv3 8) x53)))
(assert (not (= (_ bv3 8) x54)))
(assert (not (= (_ bv3 8) x55)))
(assert (not (= (_ bv3 8) x56)))
(assert (not (= (_ bv3 8) x57)))
(assert (not (= (_ bv3 8) (_ bv7 8))))
(assert (not (= x51 (_ bv5 8))))
(assert (not (= x51 x53)))
(assert (not (= x51 x54)))
(assert (not (= x51 x55)))
(assert (not (= x51 x56)))
(assert (not (= x51 x57)))
(assert (not (= x51 (_ bv7 8))))
(assert (not (= (_ bv5 8) x53)))
(assert (not (= (_ bv5 8) x54)))
(assert (not (= (_ bv5 8) x55)))
(assert (not (= (_ bv5 8) x56)))
(assert (not (= (_ bv5 8) x57)))
(assert (not (= (_ bv5 8) (_ bv7 8))))
(assert (not (= x53 x54)))
(assert (not (= x53 x55)))
(assert (not (= x53 x56)))
(assert (not (= x53 x57)))
(assert (not (= x53 (_ bv7 8))))
(assert (not (= x54 x55)))
(assert (not (= x54 x56)))
(assert (not (= x54 x57)))
(assert (not (= x54 (_ bv7 8))))
(assert (not (= x55 x56)))
(assert (not (= x55 x57)))
(assert (not (= x55 (_ bv7 8))))
(assert (not (= x56 x57)))
(assert (not (= x56 (_ bv7 8))))
(assert (not (= x57 (_ bv7 8))))
(assert (not (= (_ bv1 8) x61)))
(assert (not (= (_ bv1 8) (_ bv2 8))))
(assert (not (= (_ bv1 8) x63)))
(assert (not (= (_ bv1 8) x64)))
(assert (not (= (_ bv1 8) (_ bv9 8))))
(assert (not (= (_ bv1 8) x66)))
(assert (not (= (_ bv1 8) x67)))
(assert (not (= (_ bv1 8) (_ bv6 8))))
(assert (not (= x61 (_ bv2 8))))
(assert (not (= x61 x63)))
(assert (not (= x61 x64)))
(assert (not (= x61 (_ bv9 8))))
(assert (not (= x61 x66)))
(assert (not (= x61 x67)))
(assert (not (= x61 (_ bv6 8))))
(assert (not (= (_ bv2 8) x63)))
(assert (not (= (_ bv2 8) x64)))
(assert (not (= (_ bv2 8) (_ bv9 8))))
(assert (not (= (_ bv2 8) x66)))
(assert (not (= (_ bv2 8) x67)))
(assert (not (= (_ bv2 8) (_ bv6 8))))
(assert (not (= x63 x64)))
(assert (not (= x63 (_ bv9 8))))
(assert (not (= x63 x66)))
(assert (not (= x63 x67)))
(assert (not (= x63 (_ bv6 8))))
(assert (not (= x64 (_ bv9 8))))
(assert (not (= x64 x66)))
(assert (not (= x64 x67)))
(assert (not (= x64 (_ bv6 8))))
(assert (not (= (_ bv9 8) x66)))
(assert (not (= (_ bv9 8) x67)))
(assert (not (= (_ bv9 8) (_ bv6 8))))
(assert (not (= x66 x67)))
(assert (not (= x66 (_ bv6 8))))
(assert (not (= x67 (_ bv6 8))))
(assert (not (= x70 (_ bv4 8))))
(assert (not (= x70 x72)))
(assert (not (= x70 x73)))
(assert (not (= x70 (_ bv5 8))))
(assert (not (= x70 x75)))
(assert (not (= x70 (_ bv9 8))))
(assert (not (= x70 x77)))
(assert (not (= x70 x78)))
(assert (not (= (_ bv4 8) x72)))
(assert (not (= (_ bv4 8) x73)))
(assert (not (= (_ bv4 8) (_ bv5 8))))
(assert (not (= (_ bv4 8) x75)))
(assert (not (= (_ bv4 8) (_ bv9 8))))
(assert (not (= (_ bv4 8) x77)))
(assert (not (= (_ bv4 8) x78)))
(assert (not (= x72 x73)))
(assert (not (= x72 (_ bv5 8))))
(assert (not (= x72 x75)))
(assert (not (= x72 (_ bv9 8))))
(assert (not (= x72 x77)))
(assert (not (= x72 x78)))
(assert (not (= x73 (_ bv5 8))))
(assert (not (= x73 x75)))
(assert (not (= x73 (_ bv9 8))))
(assert (not (= x73 x77)))
(assert (not (= x73 x78)))
(assert (not (= (_ bv5 8) x75)))
(assert (not (= (_ bv5 8) (_ bv9 8))))
(assert (not (= (_ bv5 8) x77)))
(assert (not (= (_ bv5 8) x78)))
(assert (not (= x75 (_ bv9 8))))
(assert (not (= x75 x77)))
(assert (not (= x75 x78)))
(assert (not (= (_ bv9 8) x77)))
(assert (not (= (_ bv9 8) x78)))
(assert (not (= x77 x78)))
(assert (not (= x80 (_ bv5 8))))
(assert (not (= x80 x82)))
(assert (not (= x80 (_ bv7 8))))
(assert (not (= x80 (_ bv8 8))))
(assert (not (= x80 x85)))
(assert (not (= x80 (_ bv3 8))))
(assert (not (= x80 x87)))
(assert (not (= x80 x88)))
(assert (not (= (_ bv5 8) x82)))
(assert (not (= (_ bv5 8) (_ bv7 8))))
(assert (not (= (_ bv5 8) (_ bv8 8))))
(assert (not (= (_ bv5 8) x85)))
(assert (not (= (_ bv5 8) (_ bv3 8))))
(assert (not (= (_ bv5 8) x87)))
(assert (not (= (_ bv5 8) x88)))
(assert (not (= x82 (_ bv7 8))))
(assert (not (= x82 (_ bv8 8))))
(assert (not (= x82 x85)))
(assert (not (= x82 (_ bv3 8))))
(assert (not (= x82 x87)))
(assert (not (= x82 x88)))
(assert (not (= (_ bv7 8) (_ bv8 8))))
(assert (not (= (_ bv7 8) x85)))
(assert (not (= (_ bv7 8) (_ bv3 8))))
(assert (not (= (_ bv7 8) x87)))
(assert (not (= (_ bv7 8) x88)))
(assert (not (= (_ bv8 8) x85)))
(assert (not (= (_ bv8 8) (_ bv3 8))))
(assert (not (= (_ bv8 8) x87)))
(assert (not (= (_ bv8 8) x88)))
(assert (not (= x85 (_ bv3 8))))
(assert (not (= x85 x87)))
(assert (not (= x85 x88)))
(assert (not (= (_ bv3 8) x87)))
(assert (not (= (_ bv3 8) x88)))
(assert (not (= x87 x88)))
(assert (not (= x00 x10)))
(assert (not (= x00 x20)))
(assert (not (= x00 x30)))
(assert (not (= x00 (_ bv9 8))))
(assert (not (= x00 (_ bv3 8))))
(assert (not (= x00 (_ bv1 8))))
(assert (not (= x00 x70)))
(assert (not (= x00 x80)))
(assert (not (= x10 x20)))
(assert (not (= x10 x30)))
(assert (not (= x10 (_ bv9 8))))
(assert (not (= x10 (_ bv3 8))))
(assert (not (= x10 (_ bv1 8))))
(assert (not (= x10 x70)))
(assert (not (= x10 x80)))
(assert (not (= x20 x30)))
(assert (not (= x20 (_ bv9 8))))
(assert (not (= x20 (_ bv3 8))))
(assert (not (= x20 (_ bv1 8))))
(assert (not (= x20 x70)))
(assert (not (= x20 x80)))
(assert (not (= x30 (_ bv9 8))))
(assert (not (= x30 (_ bv3 8))))
(assert (not (= x30 (_ bv1 8))))
(assert (not (= x30 x70)))
(assert (not (= x30 x80)))
(assert (not (= (_ bv9 8) (_ bv3 8))))
(assert (not (= (_ bv9 8) (_ bv1 8))))
(assert (not (= (_ bv9 8) x70)))
(assert (not (= (_ bv9 8) x80)))
(assert (not (= (_ bv3 8) (_ bv1 8))))
(assert (not (= (_ bv3 8) x70)))
(assert (not (= (_ bv3 8) x80)))
(assert (not (= (_ bv1 8) x70)))
(assert (not (= (_ bv1 8) x80)))
(assert (not (= x70 x80)))
(assert (not (= (_ bv8 8) x11)))
(assert (not (= (_ bv8 8) (_ bv9 8))))
(assert (not (= (_ bv8 8) (_ bv2 8))))
(assert (not (= (_ bv8 8) x41)))
(assert (not (= (_ bv8 8) x51)))
(assert (not (= (_ bv8 8) x61)))
(assert (not (= (_ bv8 8) (_ bv4 8))))
(assert (not (= (_ bv8 8) (_ bv5 8))))
(assert (not (= x11 (_ bv9 8))))
(assert (not (= x11 (_ bv2 8))))
(assert (not (= x11 x41)))
(assert (not (= x11 x51)))
(assert (not (= x11 x61)))
(assert (not (= x11 (_ bv4 8))))
(assert (not (= x11 (_ bv5 8))))
(assert (not (= (_ bv9 8) (_ bv2 8))))
(assert (not (= (_ bv9 8) x41)))
(assert (not (= (_ bv9 8) x51)))
(assert (not (= (_ bv9 8) x61)))
(assert (not (= (_ bv9 8) (_ bv4 8))))
(assert (not (= (_ bv9 8) (_ bv5 8))))
(assert (not (= (_ bv2 8) x41)))
(assert (not (= (_ bv2 8) x51)))
(assert (not (= (_ bv2 8) x61)))
(assert (not (= (_ bv2 8) (_ bv4 8))))
(assert (not (= (_ bv2 8) (_ bv5 8))))
(assert (not (= x41 x51)))
(assert (not (= x41 x61)))
(assert (not (= x41 (_ bv4 8))))
(assert (not (= x41 (_ bv5 8))))
(assert (not (= x51 x61)))
(assert (not (= x51 (_ bv4 8))))
(assert (not (= x51 (_ bv5 8))))
(assert (not (= x61 (_ bv4 8))))
(assert (not (= x61 (_ bv5 8))))
(assert (not (= (_ bv4 8) (_ bv5 8))))
(assert (not (= (_ bv6 8) (_ bv7 8))))
(assert (not (= (_ bv6 8) x22)))
(assert (not (= (_ bv6 8) x32)))
(assert (not (= (_ bv6 8) x42)))
(assert (not (= (_ bv6 8) (_ bv5 8))))
(assert (not (= (_ bv6 8) (_ bv2 8))))
(assert (not (= (_ bv6 8) x72)))
(assert (not (= (_ bv6 8) x82)))
(assert (not (= (_ bv7 8) x22)))
(assert (not (= (_ bv7 8) x32)))
(assert (not (= (_ bv7 8) x42)))
(assert (not (= (_ bv7 8) (_ bv5 8))))
(assert (not (= (_ bv7 8) (_ bv2 8))))
(assert (not (= (_ bv7 8) x72)))
(assert (not (= (_ bv7 8) x82)))
(assert (not (= x22 x32)))
(assert (not (= x22 x42)))
(assert (not (= x22 (_ bv5 8))))
(assert (not (= x22 (_ bv2 8))))
(assert (not (= x22 x72)))
(assert (not (= x22 x82)))
(assert (not (= x32 x42)))
(assert (not (= x32 (_ bv5 8))))
(assert (not (= x32 (_ bv2 8))))
(assert (not (= x32 x72)))
(assert (not (= x32 x82)))
(assert (not (= x42 (_ bv5 8))))
(assert (not (= x42 (_ bv2 8))))
(assert (not (= x42 x72)))
(assert (not (= x42 x82)))
(assert (not (= (_ bv5 8) (_ bv2 8))))
(assert (not (= (_ bv5 8) x72)))
(assert (not (= (_ bv5 8) x82)))
(assert (not (= (_ bv2 8) x72)))
(assert (not (= (_ bv2 8) x82)))
(assert (not (= x72 x82)))
(assert (not (= x03 x13)))
(assert (not (= x03 (_ bv4 8))))
(assert (not (= x03 (_ bv1 8))))
(assert (not (= x03 (_ bv6 8))))
(assert (not (= x03 x53)))
(assert (not (= x03 x63)))
(assert (not (= x03 x73)))
(assert (not (= x03 (_ bv7 8))))
(assert (not (= x13 (_ bv4 8))))
(assert (not (= x13 (_ bv1 8))))
(assert (not (= x13 (_ bv6 8))))
(assert (not (= x13 x53)))
(assert (not (= x13 x63)))
(assert (not (= x13 x73)))
(assert (not (= x13 (_ bv7 8))))
(assert (not (= (_ bv4 8) (_ bv1 8))))
(assert (not (= (_ bv4 8) (_ bv6 8))))
(assert (not (= (_ bv4 8) x53)))
(assert (not (= (_ bv4 8) x63)))
(assert (not (= (_ bv4 8) x73)))
(assert (not (= (_ bv4 8) (_ bv7 8))))
(assert (not (= (_ bv1 8) (_ bv6 8))))
(assert (not (= (_ bv1 8) x53)))
(assert (not (= (_ bv1 8) x63)))
(assert (not (= (_ bv1 8) x73)))
(assert (not (= (_ bv1 8) (_ bv7 8))))
(assert (not (= (_ bv6 8) x53)))
(assert (not (= (_ bv6 8) x63)))
(assert (not (= (_ bv6 8) x73)))
(assert (not (= (_ bv6 8) (_ bv7 8))))
(assert (not (= x53 x63)))
(assert (not (= x53 x73)))
(assert (not (= x53 (_ bv7 8))))
(assert (not (= x63 x73)))
(assert (not (= x63 (_ bv7 8))))
(assert (not (= x73 (_ bv7 8))))
(assert (not (= x04 (_ bv1 8))))
(assert (not (= x04 x24)))
(assert (not (= x04 (_ bv9 8))))
(assert (not (= x04 x44)))
(assert (not (= x04 x54)))
(assert (not (= x04 x64)))
(assert (not (= x04 (_ bv5 8))))
(assert (not (= x04 (_ bv8 8))))
(assert (not (= (_ bv1 8) x24)))
(assert (not (= (_ bv1 8) (_ bv9 8))))
(assert (not (= (_ bv1 8) x44)))
(assert (not (= (_ bv1 8) x54)))
(assert (not (= (_ bv1 8) x64)))
(assert (not (= (_ bv1 8) (_ bv5 8))))
(assert (not (= (_ bv1 8) (_ bv8 8))))
(assert (not (= x24 (_ bv9 8))))
(assert (not (= x24 x44)))
(assert (not (= x24 x54)))
(assert (not (= x24 x64)))
(assert (not (= x24 (_ bv5 8))))
(assert (not (= x24 (_ bv8 8))))
(assert (not (= (_ bv9 8) x44)))
(assert (not (= (_ bv9 8) x54)))
(assert (not (= (_ bv9 8) x64)))
(assert (not (= (_ bv9 8) (_ bv5 8))))
(assert (not (= (_ bv9 8) (_ bv8 8))))
(assert (not (= x44 x54)))
(assert (not (= x44 x64)))
(assert (not (= x44 (_ bv5 8))))
(assert (not (= x44 (_ bv8 8))))
(assert (not (= x54 x64)))
(assert (not (= x54 (_ bv5 8))))
(assert (not (= x54 (_ bv8 8))))
(assert (not (= x64 (_ bv5 8))))
(assert (not (= x64 (_ bv8 8))))
(assert (not (= (_ bv5 8) (_ bv8 8))))
(assert (not (= x05 x15)))
(assert (not (= x05 (_ bv2 8))))
(assert (not (= x05 x35)))
(assert (not (= x05 (_ bv3 8))))
(assert (not (= x05 x55)))
(assert (not (= x05 (_ bv9 8))))
(assert (not (= x05 x75)))
(assert (not (= x05 x85)))
(assert (not (= x15 (_ bv2 8))))
(assert (not (= x15 x35)))
(assert (not (= x15 (_ bv3 8))))
(assert (not (= x15 x55)))
(assert (not (= x15 (_ bv9 8))))
(assert (not (= x15 x75)))
(assert (not (= x15 x85)))
(assert (not (= (_ bv2 8) x35)))
(assert (not (= (_ bv2 8) (_ bv3 8))))
(assert (not (= (_ bv2 8) x55)))
(assert (not (= (_ bv2 8) (_ bv9 8))))
(assert (not (= (_ bv2 8) x75)))
(assert (not (= (_ bv2 8) x85)))
(assert (not (= x35 (_ bv3 8))))
(assert (not (= x35 x55)))
(assert (not (= x35 (_ bv9 8))))
(assert (not (= x35 x75)))
(assert (not (= x35 x85)))
(assert (not (= (_ bv3 8) x55)))
(assert (not (= (_ bv3 8) (_ bv9 8))))
(assert (not (= (_ bv3 8) x75)))
(assert (not (= (_ bv3 8) x85)))
(assert (not (= x55 (_ bv9 8))))
(assert (not (= x55 x75)))
(assert (not (= x55 x85)))
(assert (not (= (_ bv9 8) x75)))
(assert (not (= (_ bv9 8) x85)))
(assert (not (= x75 x85)))
(assert (not (= (_ bv4 8) x16)))
(assert (not (= (_ bv4 8) x26)))
(assert (not (= (_ bv4 8) (_ bv6 8))))
(assert (not (= (_ bv4 8) x46)))
(assert (not (= (_ bv4 8) x56)))
(assert (not (= (_ bv4 8) x66)))
(assert (not (= (_ bv4 8) (_ bv9 8))))
(assert (not (= (_ bv4 8) (_ bv3 8))))
(assert (not (= x16 x26)))
(assert (not (= x16 (_ bv6 8))))
(assert (not (= x16 x46)))
(assert (not (= x16 x56)))
(assert (not (= x16 x66)))
(assert (not (= x16 (_ bv9 8))))
(assert (not (= x16 (_ bv3 8))))
(assert (not (= x26 (_ bv6 8))))
(assert (not (= x26 x46)))
(assert (not (= x26 x56)))
(assert (not (= x26 x66)))
(assert (not (= x26 (_ bv9 8))))
(assert (not (= x26 (_ bv3 8))))
(assert (not (= (_ bv6 8) x46)))
(assert (not (= (_ bv6 8) x56)))
(assert (not (= (_ bv6 8) x66)))
(assert (not (= (_ bv6 8) (_ bv9 8))))
(assert (not (= (_ bv6 8) (_ bv3 8))))
(assert (not (= x46 x56)))
(assert (not (= x46 x66)))
(assert (not (= x46 (_ bv9 8))))
(assert (not (= x46 (_ bv3 8))))
(assert (not (= x56 x66)))
(assert (not (= x56 (_ bv9 8))))
(assert (not (= x56 (_ bv3 8))))
(assert (not (= x66 (_ bv9 8))))
(assert (not (= x66 (_ bv3 8))))
(assert (not (= (_ bv9 8) (_ bv3 8))))
(assert (not (= x07 x17)))
(assert (not (= x07 x27)))
(assert (not (= x07 (_ bv8 8))))
(assert (not (= x07 x47)))
(assert (not (= x07 x57)))
(assert (not (= x07 x67)))
(assert (not (= x07 x77)))
(assert (not (= x07 x87)))
(assert (not (= x17 x27)))
(assert (not (= x17 (_ bv8 8))))
(assert (not (= x17 x47)))
(assert (not (= x17 x57)))
(assert (not (= x17 x67)))
(assert (not (= x17 x77)))
(assert (not (= x17 x87)))
(assert (not (= x27 (_ bv8 8))))
(assert (not (= x27 x47)))
(assert (not (= x27 x57)))
(assert (not (= x27 x67)))
(assert (not (= x27 x77)))
(assert (not (= x27 x87)))
(assert (not (= (_ bv8 8) x47)))
(assert (not (= (_ bv8 8) x57)))
(assert (not (= (_ bv8 8) x67)))
(assert (not (= (_ bv8 8) x77)))
(assert (not (= (_ bv8 8) x87)))
(assert (not (= x47 x57)))
(assert (not (= x47 x67)))
(assert (not (= x47 x77)))
(assert (not (= x47 x87)))
(assert (not (= x57 x67)))
(assert (not (= x57 x77)))
(assert (not (= x57 x87)))
(assert (not (= x67 x77)))
(assert (not (= x67 x87)))
(assert (not (= x77 x87)))
(assert (not (= x08 (_ bv5 8))))
(assert (not (= x08 x28)))
(assert (not (= x08 x38)))
(assert (not (= x08 (_ bv2 8))))
(assert (not (= x08 (_ bv7 8))))
(assert (not (= x08 (_ bv6 8))))
(assert (not (= x08 x78)))
(assert (not (= x08 x88)))
(assert (not (= (_ bv5 8) x28)))
(assert (not (= (_ bv5 8) x38)))
(assert (not (= (_ bv5 8) (_ bv2 8))))
(assert (not (= (_ bv5 8) (_ bv7 8))))
(assert (not (= (_ bv5 8) (_ bv6 8))))
(assert (not (= (_ bv5 8) x78)))
(assert (not (= (_ bv5 8) x88)))
(assert (not (= x28 x38)))
(assert (not (= x28 (_ bv2 8))))
(assert (not (= x28 (_ bv7 8))))
(assert (not (= x28 (_ bv6 8))))
(assert (not (= x28 x78)))
(assert (not (= x28 x88)))
(assert (not (= x38 (_ bv2 8))))
(assert (not (= x38 (_ bv7 8))))
(assert (not (= x38 (_ bv6 8))))
(assert (not (= x38 x78)))
(assert (not (= x38 x88)))
(assert (not (= (_ bv2 8) (_ bv7 8))))
(assert (not (= (_ bv2 8) (_ bv6 8))))
(assert (not (= (_ bv2 8) x78)))
(assert (not (= (_ bv2 8) x88)))
(assert (not (= (_ bv7 8) (_ bv6 8))))
(assert (not (= (_ bv7 8) x78)))
(assert (not (= (_ bv7 8) x88)))
(assert (not (= (_ bv6 8) x78)))
(assert (not (= (_ bv6 8) x88)))
(assert (not (= x78 x88)))
(assert (not (= x00 (_ bv8 8))))
(assert (not (= x00 (_ bv6 8))))
(assert (not (= x00 x10)))
(assert (not (= x00 x11)))
(assert (not (= x00 (_ bv7 8))))
(assert (not (= x00 x20)))
(assert (not (= x00 (_ bv9 8))))
(assert (not (= x00 x22)))
(assert (not (= (_ bv8 8) (_ bv6 8))))
(assert (not (= (_ bv8 8) x10)))
(assert (not (= (_ bv8 8) x11)))
(assert (not (= (_ bv8 8) (_ bv7 8))))
(assert (not (= (_ bv8 8) x20)))
(assert (not (= (_ bv8 8) (_ bv9 8))))
(assert (not (= (_ bv8 8) x22)))
(assert (not (= (_ bv6 8) x10)))
(assert (not (= (_ bv6 8) x11)))
(assert (not (= (_ bv6 8) (_ bv7 8))))
(assert (not (= (_ bv6 8) x20)))
(assert (not (= (_ bv6 8) (_ bv9 8))))
(assert (not (= (_ bv6 8) x22)))
(assert (not (= x10 x11)))
(assert (not (= x10 (_ bv7 8))))
(assert (not (= x10 x20)))
(assert (not (= x10 (_ bv9 8))))
(assert (not (= x10 x22)))
(assert (not (= x11 (_ bv7 8))))
(assert (not (= x11 x20)))
(assert (not (= x11 (_ bv9 8))))
(assert (not (= x11 x22)))
(assert (not (= (_ bv7 8) x20)))
(assert (not (= (_ bv7 8) (_ bv9 8))))
(assert (not (= (_ bv7 8) x22)))
(assert (not (= x20 (_ bv9 8))))
(assert (not (= x20 x22)))
(assert (not (= (_ bv9 8) x22)))
(assert (not (= x03 x04)))
(assert (not (= x03 x05)))
(assert (not (= x03 x13)))
(assert (not (= x03 (_ bv1 8))))
(assert (not (= x03 x15)))
(assert (not (= x03 (_ bv4 8))))
(assert (not (= x03 x24)))
(assert (not (= x03 (_ bv2 8))))
(assert (not (= x04 x05)))
(assert (not (= x04 x13)))
(assert (not (= x04 (_ bv1 8))))
(assert (not (= x04 x15)))
(assert (not (= x04 (_ bv4 8))))
(assert (not (= x04 x24)))
(assert (not (= x04 (_ bv2 8))))
(assert (not (= x05 x13)))
(assert (not (= x05 (_ bv1 8))))
(assert (not (= x05 x15)))
(assert (not (= x05 (_ bv4 8))))
(assert (not (= x05 x24)))
(assert (not (= x05 (_ bv2 8))))
(assert (not (= x13 (_ bv1 8))))
(assert (not (= x13 x15)))
(assert (not (= x13 (_ bv4 8))))
(assert (not (= x13 x24)))
(assert (not (= x13 (_ bv2 8))))
(assert (not (= (_ bv1 8) x15)))
(assert (not (= (_ bv1 8) (_ bv4 8))))
(assert (not (= (_ bv1 8) x24)))
(assert (not (= (_ bv1 8) (_ bv2 8))))
(assert (not (= x15 (_ bv4 8))))
(assert (not (= x15 x24)))
(assert (not (= x15 (_ bv2 8))))
(assert (not (= (_ bv4 8) x24)))
(assert (not (= (_ bv4 8) (_ bv2 8))))
(assert (not (= x24 (_ bv2 8))))
(assert (not (= (_ bv4 8) x07)))
(assert (not (= (_ bv4 8) x08)))
(assert (not (= (_ bv4 8) x16)))
(assert (not (= (_ bv4 8) x17)))
(assert (not (= (_ bv4 8) (_ bv5 8))))
(assert (not (= (_ bv4 8) x26)))
(assert (not (= (_ bv4 8) x27)))
(assert (not (= (_ bv4 8) x28)))
(assert (not (= x07 x08)))
(assert (not (= x07 x16)))
(assert (not (= x07 x17)))
(assert (not (= x07 (_ bv5 8))))
(assert (not (= x07 x26)))
(assert (not (= x07 x27)))
(assert (not (= x07 x28)))
(assert (not (= x08 x16)))
(assert (not (= x08 x17)))
(assert (not (= x08 (_ bv5 8))))
(assert (not (= x08 x26)))
(assert (not (= x08 x27)))
(assert (not (= x08 x28)))
(assert (not (= x16 x17)))
(assert (not (= x16 (_ bv5 8))))
(assert (not (= x16 x26)))
(assert (not (= x16 x27)))
(assert (not (= x16 x28)))
(assert (not (= x17 (_ bv5 8))))
(assert (not (= x17 x26)))
(assert (not (= x17 x27)))
(assert (not (= x17 x28)))
(assert (not (= (_ bv5 8) x26)))
(assert (not (= (_ bv5 8) x27)))
(assert (not (= (_ bv5 8) x28)))
(assert (not (= x26 x27)))
(assert (not (= x26 x28)))
(assert (not (= x27 x28)))
(assert (not (= x30 (_ bv2 8))))
(assert (not (= x30 x32)))
(assert (not (= x30 (_ bv9 8))))
(assert (not (= x30 x41)))
(assert (not (= x30 x42)))
(assert (not (= x30 (_ bv3 8))))
(assert (not (= x30 x51)))
(assert (not (= x30 (_ bv5 8))))
(assert (not (= (_ bv2 8) x32)))
(assert (not (= (_ bv2 8) (_ bv9 8))))
(assert (not (= (_ bv2 8) x41)))
(assert (not (= (_ bv2 8) x42)))
(assert (not (= (_ bv2 8) (_ bv3 8))))
(assert (not (= (_ bv2 8) x51)))
(assert (not (= (_ bv2 8) (_ bv5 8))))
(assert (not (= x32 (_ bv9 8))))
(assert (not (= x32 x41)))
(assert (not (= x32 x42)))
(assert (not (= x32 (_ bv3 8))))
(assert (not (= x32 x51)))
(assert (not (= x32 (_ bv5 8))))
(assert (not (= (_ bv9 8) x41)))
(assert (not (= (_ bv9 8) x42)))
(assert (not (= (_ bv9 8) (_ bv3 8))))
(assert (not (= (_ bv9 8) x51)))
(assert (not (= (_ bv9 8) (_ bv5 8))))
(assert (not (= x41 x42)))
(assert (not (= x41 (_ bv3 8))))
(assert (not (= x41 x51)))
(assert (not (= x41 (_ bv5 8))))
(assert (not (= x42 (_ bv3 8))))
(assert (not (= x42 x51)))
(assert (not (= x42 (_ bv5 8))))
(assert (not (= (_ bv3 8) x51)))
(assert (not (= (_ bv3 8) (_ bv5 8))))
(assert (not (= x51 (_ bv5 8))))
(assert (not (= (_ bv1 8) (_ bv9 8))))
(assert (not (= (_ bv1 8) x35)))
(assert (not (= (_ bv1 8) (_ bv6 8))))
(assert (not (= (_ bv1 8) x44)))
(assert (not (= (_ bv1 8) (_ bv3 8))))
(assert (not (= (_ bv1 8) x53)))
(assert (not (= (_ bv1 8) x54)))
(assert (not (= (_ bv1 8) x55)))
(assert (not (= (_ bv9 8) x35)))
(assert (not (= (_ bv9 8) (_ bv6 8))))
(assert (not (= (_ bv9 8) x44)))
(assert (not (= (_ bv9 8) (_ bv3 8))))
(assert (not (= (_ bv9 8) x53)))
(assert (not (= (_ bv9 8) x54)))
(assert (not (= (_ bv9 8) x55)))
(assert (not (= x35 (_ bv6 8))))
(assert (not (= x35 x44)))
(assert (not (= x35 (_ bv3 8))))
(assert (not (= x35 x53)))
(assert (not (= x35 x54)))
(assert (not (= x35 x55)))
(assert (not (= (_ bv6 8) x44)))
(assert (not (= (_ bv6 8) (_ bv3 8))))
(assert (not (= (_ bv6 8) x53)))
(assert (not (= (_ bv6 8) x54)))
(assert (not (= (_ bv6 8) x55)))
(assert (not (= x44 (_ bv3 8))))
(assert (not (= x44 x53)))
(assert (not (= x44 x54)))
(assert (not (= x44 x55)))
(assert (not (= (_ bv3 8) x53)))
(assert (not (= (_ bv3 8) x54)))
(assert (not (= (_ bv3 8) x55)))
(assert (not (= x53 x54)))
(assert (not (= x53 x55)))
(assert (not (= x54 x55)))
(assert (not (= (_ bv6 8) (_ bv8 8))))
(assert (not (= (_ bv6 8) x38)))
(assert (not (= (_ bv6 8) x46)))
(assert (not (= (_ bv6 8) x47)))
(assert (not (= (_ bv6 8) (_ bv2 8))))
(assert (not (= (_ bv6 8) x56)))
(assert (not (= (_ bv6 8) x57)))
(assert (not (= (_ bv6 8) (_ bv7 8))))
(assert (not (= (_ bv8 8) x38)))
(assert (not (= (_ bv8 8) x46)))
(assert (not (= (_ bv8 8) x47)))
(assert (not (= (_ bv8 8) (_ bv2 8))))
(assert (not (= (_ bv8 8) x56)))
(assert (not (= (_ bv8 8) x57)))
(assert (not (= (_ bv8 8) (_ bv7 8))))
(assert (not (= x38 x46)))
(assert (not (= x38 x47)))
(assert (not (= x38 (_ bv2 8))))
(assert (not (= x38 x56)))
(assert (not (= x38 x57)))
(assert (not (= x38 (_ bv7 8))))
(assert (not (= x46 x47)))
(assert (not (= x46 (_ bv2 8))))
(assert (not (= x46 x56)))
(assert (not (= x46 x57)))
(assert (not (= x46 (_ bv7 8))))
(assert (not (= x47 (_ bv2 8))))
(assert (not (= x47 x56)))
(assert (not (= x47 x57)))
(assert (not (= x47 (_ bv7 8))))
(assert (not (= (_ bv2 8) x56)))
(assert (not (= (_ bv2 8) x57)))
(assert (not (= (_ bv2 8) (_ bv7 8))))
(assert (not (= x56 x57)))
(assert (not (= x56 (_ bv7 8))))
(assert (not (= x57 (_ bv7 8))))
(assert (not (= (_ bv1 8) x61)))
(assert (not (= (_ bv1 8) (_ bv2 8))))
(assert (not (= (_ bv1 8) x70)))
(assert (not (= (_ bv1 8) (_ bv4 8))))
(assert (not (= (_ bv1 8) x72)))
(assert (not (= (_ bv1 8) x80)))
(assert (not (= (_ bv1 8) (_ bv5 8))))
(assert (not (= (_ bv1 8) x82)))
(assert (not (= x61 (_ bv2 8))))
(assert (not (= x61 x70)))
(assert (not (= x61 (_ bv4 8))))
(assert (not (= x61 x72)))
(assert (not (= x61 x80)))
(assert (not (= x61 (_ bv5 8))))
(assert (not (= x61 x82)))
(assert (not (= (_ bv2 8) x70)))
(assert (not (= (_ bv2 8) (_ bv4 8))))
(assert (not (= (_ bv2 8) x72)))
(assert (not (= (_ bv2 8) x80)))
(assert (not (= (_ bv2 8) (_ bv5 8))))
(assert (not (= (_ bv2 8) x82)))
(assert (not (= x70 (_ bv4 8))))
(assert (not (= x70 x72)))
(assert (not (= x70 x80)))
(assert (not (= x70 (_ bv5 8))))
(assert (not (= x70 x82)))
(assert (not (= (_ bv4 8) x72)))
(assert (not (= (_ bv4 8) x80)))
(assert (not (= (_ bv4 8) (_ bv5 8))))
(assert (not (= (_ bv4 8) x82)))
(assert (not (= x72 x80)))
(assert (not (= x72 (_ bv5 8))))
(assert (not (= x72 x82)))
(assert (not (= x80 (_ bv5 8))))
(assert (not (= x80 x82)))
(assert (not (= (_ bv5 8) x82)))
(assert (not (= x63 x64)))
(assert (not (= x63 (_ bv9 8))))
(assert (not (= x63 x73)))
(assert (not (= x63 (_ bv5 8))))
(assert (not (= x63 x75)))
(assert (not (= x63 (_ bv7 8))))
(assert (not (= x63 (_ bv8 8))))
(assert (not (= x63 x85)))
(assert (not (= x64 (_ bv9 8))))
(assert (not (= x64 x73)))
(assert (not (= x64 (_ bv5 8))))
(assert (not (= x64 x75)))
(assert (not (= x64 (_ bv7 8))))
(assert (not (= x64 (_ bv8 8))))
(assert (not (= x64 x85)))
(assert (not (= (_ bv9 8) x73)))
(assert (not (= (_ bv9 8) (_ bv5 8))))
(assert (not (= (_ bv9 8) x75)))
(assert (not (= (_ bv9 8) (_ bv7 8))))
(assert (not (= (_ bv9 8) (_ bv8 8))))
(assert (not (= (_ bv9 8) x85)))
(assert (not (= x73 (_ bv5 8))))
(assert (not (= x73 x75)))
(assert (not (= x73 (_ bv7 8))))
(assert (not (= x73 (_ bv8 8))))
(assert (not (= x73 x85)))
(assert (not (= (_ bv5 8) x75)))
(assert (not (= (_ bv5 8) (_ bv7 8))))
(assert (not (= (_ bv5 8) (_ bv8 8))))
(assert (not (= (_ bv5 8) x85)))
(assert (not (= x75 (_ bv7 8))))
(assert (not (= x75 (_ bv8 8))))
(assert (not (= x75 x85)))
(assert (not (= (_ bv7 8) (_ bv8 8))))
(assert (not (= (_ bv7 8) x85)))
(assert (not (= (_ bv8 8) x85)))
(assert (not (= x66 x67)))
(assert (not (= x66 (_ bv6 8))))
(assert (not (= x66 (_ bv9 8))))
(assert (not (= x66 x77)))
(assert (not (= x66 x78)))
(assert (not (= x66 (_ bv3 8))))
(assert (not (= x66 x87)))
(assert (not (= x66 x88)))
(assert (not (= x67 (_ bv6 8))))
(assert (not (= x67 (_ bv9 8))))
(assert (not (= x67 x77)))
(assert (not (= x67 x78)))
(assert (not (= x67 (_ bv3 8))))
(assert (not (= x67 x87)))
(assert (not (= x67 x88)))
(assert (not (= (_ bv6 8) (_ bv9 8))))
(assert (not (= (_ bv6 8) x77)))
(assert (not (= (_ bv6 8) x78)))
(assert (not (= (_ bv6 8) (_ bv3 8))))
(assert (not (= (_ bv6 8) x87)))
(assert (not (= (_ bv6 8) x88)))
(assert (not (= (_ bv9 8) x77)))
(assert (not (= (_ bv9 8) x78)))
(assert (not (= (_ bv9 8) (_ bv3 8))))
(assert (not (= (_ bv9 8) x87)))
(assert (not (= (_ bv9 8) x88)))
(assert (not (= x77 x78)))
(assert (not (= x77 (_ bv3 8))))
(assert (not (= x77 x87)))
(assert (not (= x77 x88)))
(assert (not (= x78 (_ bv3 8))))
(assert (not (= x78 x87)))
(assert (not (= x78 x88)))
(assert (not (= (_ bv3 8) x87)))
(assert (not (= (_ bv3 8) x88)))
(assert (not (= x87 x88)))
(check-sat)
(exit)
